c Soma dos ótimos das componentes.
p edge 30 28
e 1 2
e 2 3
e 3 4
e 4 5
e 5 6
e 6 7
e 7 8
e 8 9
e 9 10
e 11 12
e 11 21
e 12 13
e 13 14
e 14 15
e 15 16
e 16 17
e 17 18
e 18 19
e 19 20
e 20 21
e 22 23
e 22 24
e 22 25
e 22 26
e 22 27
e 22 28
e 22 29
e 22 30
